Nb of jobs, Nb of Machines, Time seed, Machine seed, Upper bound, Lower bound
5,10,-1,-1,-1,-1
Times
88,57,51,83,87,80,90,90,32,8
91,19,74,3,53,82,70,34,54,87
28,46,88,12,52,36,88,22,34,41
92,59,67,14,43,51,56,42,83,41
92,78,74,16,24,51,44,61,67,92
Machines
10,6,9,3,2,5,8,7,4,1
10,5,2,1,3,6,9,7,8,4
1,6,5,3,7,2,10,9,8,4
8,6,3,7,9,10,4,1,2,5
3,7,10,6,8,5,9,4,1,2
